language ESSENCE' 1.0
$ minion Nodes: 9
$ minion TotalTime: 0.001351
$ Savile Row TotalTime: 0.505
letting f_AsReln_RelationAsSet_SetExplicitVarSize_tuple2_tuple1_SetOccurrence be [[true, true;int(1..2)], 
[true, true;int(1..2)], 
[true, true;int(1..2)], 
[true, true;int(1..2)];int(1..4)]
letting f_AsReln_RelationAsSet_SetExplicitVarSize_tuple2_tuple2_tuple2 be [5, 5, 5, 5;int(1..4)]
letting f_AsReln_RelationAsSet_SetExplicitVarSize_tuple2_tuple2_tuple1 be [3, 3, 3, 3;int(1..4)]
letting f_AsReln_RelationAsSet_SetExplicitVarSize_tuple1 be [false, false, false, true;int(1..4)]
